c n orig vars 104
p cnf 419 1310
105 -1 0
105 -2 0
-105 1 2 0
106 -3 0
106 -4 0
-106 3 4 0
107 -5 0
107 -6 0
-107 5 6 0
108 -7 0
108 -8 0
-108 7 8 0
109 -9 0
109 -10 0
-109 9 10 0
110 -11 0
110 -12 0
-110 11 12 0
111 -13 0
111 -14 0
-111 13 14 0
112 -15 0
112 -16 0
-112 15 16 0
113 -17 0
113 -18 0
-113 17 18 0
114 -19 0
114 -20 0
-114 19 20 0
115 -21 0
115 -22 0
-115 21 22 0
116 -23 0
116 -24 0
-116 23 24 0
117 -25 0
117 -26 0
-117 25 26 0
118 -27 0
118 -28 0
-118 27 28 0
119 -29 0
119 -30 0
-119 29 30 0
120 -31 0
120 -32 0
-120 31 32 0
-121 105 0
-121 106 0
-121 107 0
-121 108 0
-121 109 0
-121 110 0
-121 111 0
-121 112 0
-121 113 0
-121 114 0
-121 115 0
-121 116 0
-121 117 0
-121 118 0
-121 119 0
-121 120 0
121 -105 -106 -107 -108 -109 -110 -111 -112 -113 -114 -115 -116 -117 -118 -119 -120 0
-121 0
122 -33 0
122 -42 0
122 -51 0
122 -60 0
122 -69 0
122 -78 0
122 -87 0
122 -96 0
-122 33 42 51 60 69 78 87 96 0
123 -34 0
123 -43 0
123 -52 0
123 -61 0
123 -70 0
123 -79 0
123 -88 0
123 -97 0
-123 34 43 52 61 70 79 88 97 0
124 -35 0
124 -44 0
124 -53 0
124 -62 0
124 -71 0
124 -80 0
124 -89 0
124 -98 0
-124 35 44 53 62 71 80 89 98 0
125 -36 0
125 -45 0
125 -54 0
125 -63 0
125 -72 0
125 -81 0
125 -90 0
125 -99 0
-125 36 45 54 63 72 81 90 99 0
126 -37 0
126 -46 0
126 -55 0
126 -64 0
126 -73 0
126 -82 0
126 -91 0
126 -100 0
-126 37 46 55 64 73 82 91 100 0
127 -38 0
127 -47 0
127 -56 0
127 -65 0
127 -74 0
127 -83 0
127 -92 0
127 -101 0
-127 38 47 56 65 74 83 92 101 0
128 -39 0
128 -48 0
128 -57 0
128 -66 0
128 -75 0
128 -84 0
128 -93 0
128 -102 0
-128 39 48 57 66 75 84 93 102 0
129 -40 0
129 -49 0
129 -58 0
129 -67 0
129 -76 0
129 -85 0
129 -94 0
129 -103 0
-129 40 49 58 67 76 85 94 103 0
130 -41 0
130 -50 0
130 -59 0
130 -68 0
130 -77 0
130 -86 0
130 -95 0
130 -104 0
-130 41 50 59 68 77 86 95 104 0
131 33 0
131 34 0
-131 -33 -34 0
132 33 0
132 35 0
-132 -33 -35 0
133 33 0
133 36 0
-133 -33 -36 0
134 33 0
134 37 0
-134 -33 -37 0
135 33 0
135 38 0
-135 -33 -38 0
136 33 0
136 39 0
-136 -33 -39 0
137 33 0
137 40 0
-137 -33 -40 0
138 33 0
138 41 0
-138 -33 -41 0
139 34 0
139 35 0
-139 -34 -35 0
140 34 0
140 36 0
-140 -34 -36 0
141 34 0
141 37 0
-141 -34 -37 0
142 34 0
142 38 0
-142 -34 -38 0
143 34 0
143 39 0
-143 -34 -39 0
144 34 0
144 40 0
-144 -34 -40 0
145 34 0
145 41 0
-145 -34 -41 0
146 35 0
146 36 0
-146 -35 -36 0
147 35 0
147 37 0
-147 -35 -37 0
148 35 0
148 38 0
-148 -35 -38 0
149 35 0
149 39 0
-149 -35 -39 0
150 35 0
150 40 0
-150 -35 -40 0
151 35 0
151 41 0
-151 -35 -41 0
152 36 0
152 37 0
-152 -36 -37 0
153 36 0
153 38 0
-153 -36 -38 0
154 36 0
154 39 0
-154 -36 -39 0
155 36 0
155 40 0
-155 -36 -40 0
156 36 0
156 41 0
-156 -36 -41 0
157 37 0
157 38 0
-157 -37 -38 0
158 37 0
158 39 0
-158 -37 -39 0
159 37 0
159 40 0
-159 -37 -40 0
160 37 0
160 41 0
-160 -37 -41 0
161 38 0
161 39 0
-161 -38 -39 0
162 38 0
162 40 0
-162 -38 -40 0
163 38 0
163 41 0
-163 -38 -41 0
164 39 0
164 40 0
-164 -39 -40 0
165 39 0
165 41 0
-165 -39 -41 0
166 40 0
166 41 0
-166 -40 -41 0
167 42 0
167 43 0
-167 -42 -43 0
168 42 0
168 44 0
-168 -42 -44 0
169 42 0
169 45 0
-169 -42 -45 0
170 42 0
170 46 0
-170 -42 -46 0
171 42 0
171 47 0
-171 -42 -47 0
172 42 0
172 48 0
-172 -42 -48 0
173 42 0
173 49 0
-173 -42 -49 0
174 42 0
174 50 0
-174 -42 -50 0
175 43 0
175 44 0
-175 -43 -44 0
176 43 0
176 45 0
-176 -43 -45 0
177 43 0
177 46 0
-177 -43 -46 0
178 43 0
178 47 0
-178 -43 -47 0
179 43 0
179 48 0
-179 -43 -48 0
180 43 0
180 49 0
-180 -43 -49 0
181 43 0
181 50 0
-181 -43 -50 0
182 44 0
182 45 0
-182 -44 -45 0
183 44 0
183 46 0
-183 -44 -46 0
184 44 0
184 47 0
-184 -44 -47 0
185 44 0
185 48 0
-185 -44 -48 0
186 44 0
186 49 0
-186 -44 -49 0
187 44 0
187 50 0
-187 -44 -50 0
188 45 0
188 46 0
-188 -45 -46 0
189 45 0
189 47 0
-189 -45 -47 0
190 45 0
190 48 0
-190 -45 -48 0
191 45 0
191 49 0
-191 -45 -49 0
192 45 0
192 50 0
-192 -45 -50 0
193 46 0
193 47 0
-193 -46 -47 0
194 46 0
194 48 0
-194 -46 -48 0
195 46 0
195 49 0
-195 -46 -49 0
196 46 0
196 50 0
-196 -46 -50 0
197 47 0
197 48 0
-197 -47 -48 0
198 47 0
198 49 0
-198 -47 -49 0
199 47 0
199 50 0
-199 -47 -50 0
200 48 0
200 49 0
-200 -48 -49 0
201 48 0
201 50 0
-201 -48 -50 0
202 49 0
202 50 0
-202 -49 -50 0
203 51 0
203 52 0
-203 -51 -52 0
204 51 0
204 53 0
-204 -51 -53 0
205 51 0
205 54 0
-205 -51 -54 0
206 51 0
206 55 0
-206 -51 -55 0
207 51 0
207 56 0
-207 -51 -56 0
208 51 0
208 57 0
-208 -51 -57 0
209 51 0
209 58 0
-209 -51 -58 0
210 51 0
210 59 0
-210 -51 -59 0
211 52 0
211 53 0
-211 -52 -53 0
212 52 0
212 54 0
-212 -52 -54 0
213 52 0
213 55 0
-213 -52 -55 0
214 52 0
214 56 0
-214 -52 -56 0
215 52 0
215 57 0
-215 -52 -57 0
216 52 0
216 58 0
-216 -52 -58 0
217 52 0
217 59 0
-217 -52 -59 0
218 53 0
218 54 0
-218 -53 -54 0
219 53 0
219 55 0
-219 -53 -55 0
220 53 0
220 56 0
-220 -53 -56 0
221 53 0
221 57 0
-221 -53 -57 0
222 53 0
222 58 0
-222 -53 -58 0
223 53 0
223 59 0
-223 -53 -59 0
224 54 0
224 55 0
-224 -54 -55 0
225 54 0
225 56 0
-225 -54 -56 0
226 54 0
226 57 0
-226 -54 -57 0
227 54 0
227 58 0
-227 -54 -58 0
228 54 0
228 59 0
-228 -54 -59 0
229 55 0
229 56 0
-229 -55 -56 0
230 55 0
230 57 0
-230 -55 -57 0
231 55 0
231 58 0
-231 -55 -58 0
232 55 0
232 59 0
-232 -55 -59 0
233 56 0
233 57 0
-233 -56 -57 0
234 56 0
234 58 0
-234 -56 -58 0
235 56 0
235 59 0
-235 -56 -59 0
236 57 0
236 58 0
-236 -57 -58 0
237 57 0
237 59 0
-237 -57 -59 0
238 58 0
238 59 0
-238 -58 -59 0
239 60 0
239 61 0
-239 -60 -61 0
240 60 0
240 62 0
-240 -60 -62 0
241 60 0
241 63 0
-241 -60 -63 0
242 60 0
242 64 0
-242 -60 -64 0
243 60 0
243 65 0
-243 -60 -65 0
244 60 0
244 66 0
-244 -60 -66 0
245 60 0
245 67 0
-245 -60 -67 0
246 60 0
246 68 0
-246 -60 -68 0
247 61 0
247 62 0
-247 -61 -62 0
248 61 0
248 63 0
-248 -61 -63 0
249 61 0
249 64 0
-249 -61 -64 0
250 61 0
250 65 0
-250 -61 -65 0
251 61 0
251 66 0
-251 -61 -66 0
252 61 0
252 67 0
-252 -61 -67 0
253 61 0
253 68 0
-253 -61 -68 0
254 62 0
254 63 0
-254 -62 -63 0
255 62 0
255 64 0
-255 -62 -64 0
256 62 0
256 65 0
-256 -62 -65 0
257 62 0
257 66 0
-257 -62 -66 0
258 62 0
258 67 0
-258 -62 -67 0
259 62 0
259 68 0
-259 -62 -68 0
260 63 0
260 64 0
-260 -63 -64 0
261 63 0
261 65 0
-261 -63 -65 0
262 63 0
262 66 0
-262 -63 -66 0
263 63 0
263 67 0
-263 -63 -67 0
264 63 0
264 68 0
-264 -63 -68 0
265 64 0
265 65 0
-265 -64 -65 0
266 64 0
266 66 0
-266 -64 -66 0
267 64 0
267 67 0
-267 -64 -67 0
268 64 0
268 68 0
-268 -64 -68 0
269 65 0
269 66 0
-269 -65 -66 0
270 65 0
270 67 0
-270 -65 -67 0
271 65 0
271 68 0
-271 -65 -68 0
272 66 0
272 67 0
-272 -66 -67 0
273 66 0
273 68 0
-273 -66 -68 0
274 67 0
274 68 0
-274 -67 -68 0
275 69 0
275 70 0
-275 -69 -70 0
276 69 0
276 71 0
-276 -69 -71 0
277 69 0
277 72 0
-277 -69 -72 0
278 69 0
278 73 0
-278 -69 -73 0
279 69 0
279 74 0
-279 -69 -74 0
280 69 0
280 75 0
-280 -69 -75 0
281 69 0
281 76 0
-281 -69 -76 0
282 69 0
282 77 0
-282 -69 -77 0
283 70 0
283 71 0
-283 -70 -71 0
284 70 0
284 72 0
-284 -70 -72 0
285 70 0
285 73 0
-285 -70 -73 0
286 70 0
286 74 0
-286 -70 -74 0
287 70 0
287 75 0
-287 -70 -75 0
288 70 0
288 76 0
-288 -70 -76 0
289 70 0
289 77 0
-289 -70 -77 0
290 71 0
290 72 0
-290 -71 -72 0
291 71 0
291 73 0
-291 -71 -73 0
292 71 0
292 74 0
-292 -71 -74 0
293 71 0
293 75 0
-293 -71 -75 0
294 71 0
294 76 0
-294 -71 -76 0
295 71 0
295 77 0
-295 -71 -77 0
296 72 0
296 73 0
-296 -72 -73 0
297 72 0
297 74 0
-297 -72 -74 0
298 72 0
298 75 0
-298 -72 -75 0
299 72 0
299 76 0
-299 -72 -76 0
300 72 0
300 77 0
-300 -72 -77 0
301 73 0
301 74 0
-301 -73 -74 0
302 73 0
302 75 0
-302 -73 -75 0
303 73 0
303 76 0
-303 -73 -76 0
304 73 0
304 77 0
-304 -73 -77 0
305 74 0
305 75 0
-305 -74 -75 0
306 74 0
306 76 0
-306 -74 -76 0
307 74 0
307 77 0
-307 -74 -77 0
308 75 0
308 76 0
-308 -75 -76 0
309 75 0
309 77 0
-309 -75 -77 0
310 76 0
310 77 0
-310 -76 -77 0
311 78 0
311 79 0
-311 -78 -79 0
312 78 0
312 80 0
-312 -78 -80 0
313 78 0
313 81 0
-313 -78 -81 0
314 78 0
314 82 0
-314 -78 -82 0
315 78 0
315 83 0
-315 -78 -83 0
316 78 0
316 84 0
-316 -78 -84 0
317 78 0
317 85 0
-317 -78 -85 0
318 78 0
318 86 0
-318 -78 -86 0
319 79 0
319 80 0
-319 -79 -80 0
320 79 0
320 81 0
-320 -79 -81 0
321 79 0
321 82 0
-321 -79 -82 0
322 79 0
322 83 0
-322 -79 -83 0
323 79 0
323 84 0
-323 -79 -84 0
324 79 0
324 85 0
-324 -79 -85 0
325 79 0
325 86 0
-325 -79 -86 0
326 80 0
326 81 0
-326 -80 -81 0
327 80 0
327 82 0
-327 -80 -82 0
328 80 0
328 83 0
-328 -80 -83 0
329 80 0
329 84 0
-329 -80 -84 0
330 80 0
330 85 0
-330 -80 -85 0
331 80 0
331 86 0
-331 -80 -86 0
332 81 0
332 82 0
-332 -81 -82 0
333 81 0
333 83 0
-333 -81 -83 0
334 81 0
334 84 0
-334 -81 -84 0
335 81 0
335 85 0
-335 -81 -85 0
336 81 0
336 86 0
-336 -81 -86 0
337 82 0
337 83 0
-337 -82 -83 0
338 82 0
338 84 0
-338 -82 -84 0
339 82 0
339 85 0
-339 -82 -85 0
340 82 0
340 86 0
-340 -82 -86 0
341 83 0
341 84 0
-341 -83 -84 0
342 83 0
342 85 0
-342 -83 -85 0
343 83 0
343 86 0
-343 -83 -86 0
344 84 0
344 85 0
-344 -84 -85 0
345 84 0
345 86 0
-345 -84 -86 0
346 85 0
346 86 0
-346 -85 -86 0
347 87 0
347 88 0
-347 -87 -88 0
348 87 0
348 89 0
-348 -87 -89 0
349 87 0
349 90 0
-349 -87 -90 0
350 87 0
350 91 0
-350 -87 -91 0
351 87 0
351 92 0
-351 -87 -92 0
352 87 0
352 93 0
-352 -87 -93 0
353 87 0
353 94 0
-353 -87 -94 0
354 87 0
354 95 0
-354 -87 -95 0
355 88 0
355 89 0
-355 -88 -89 0
356 88 0
356 90 0
-356 -88 -90 0
357 88 0
357 91 0
-357 -88 -91 0
358 88 0
358 92 0
-358 -88 -92 0
359 88 0
359 93 0
-359 -88 -93 0
360 88 0
360 94 0
-360 -88 -94 0
361 88 0
361 95 0
-361 -88 -95 0
362 89 0
362 90 0
-362 -89 -90 0
363 89 0
363 91 0
-363 -89 -91 0
364 89 0
364 92 0
-364 -89 -92 0
365 89 0
365 93 0
-365 -89 -93 0
366 89 0
366 94 0
-366 -89 -94 0
367 89 0
367 95 0
-367 -89 -95 0
368 90 0
368 91 0
-368 -90 -91 0
369 90 0
369 92 0
-369 -90 -92 0
370 90 0
370 93 0
-370 -90 -93 0
371 90 0
371 94 0
-371 -90 -94 0
372 90 0
372 95 0
-372 -90 -95 0
373 91 0
373 92 0
-373 -91 -92 0
374 91 0
374 93 0
-374 -91 -93 0
375 91 0
375 94 0
-375 -91 -94 0
376 91 0
376 95 0
-376 -91 -95 0
377 92 0
377 93 0
-377 -92 -93 0
378 92 0
378 94 0
-378 -92 -94 0
379 92 0
379 95 0
-379 -92 -95 0
380 93 0
380 94 0
-380 -93 -94 0
381 93 0
381 95 0
-381 -93 -95 0
382 94 0
382 95 0
-382 -94 -95 0
383 96 0
383 97 0
-383 -96 -97 0
384 96 0
384 98 0
-384 -96 -98 0
385 96 0
385 99 0
-385 -96 -99 0
386 96 0
386 100 0
-386 -96 -100 0
387 96 0
387 101 0
-387 -96 -101 0
388 96 0
388 102 0
-388 -96 -102 0
389 96 0
389 103 0
-389 -96 -103 0
390 96 0
390 104 0
-390 -96 -104 0
391 97 0
391 98 0
-391 -97 -98 0
392 97 0
392 99 0
-392 -97 -99 0
393 97 0
393 100 0
-393 -97 -100 0
394 97 0
394 101 0
-394 -97 -101 0
395 97 0
395 102 0
-395 -97 -102 0
396 97 0
396 103 0
-396 -97 -103 0
397 97 0
397 104 0
-397 -97 -104 0
398 98 0
398 99 0
-398 -98 -99 0
399 98 0
399 100 0
-399 -98 -100 0
400 98 0
400 101 0
-400 -98 -101 0
401 98 0
401 102 0
-401 -98 -102 0
402 98 0
402 103 0
-402 -98 -103 0
403 98 0
403 104 0
-403 -98 -104 0
404 99 0
404 100 0
-404 -99 -100 0
405 99 0
405 101 0
-405 -99 -101 0
406 99 0
406 102 0
-406 -99 -102 0
407 99 0
407 103 0
-407 -99 -103 0
408 99 0
408 104 0
-408 -99 -104 0
409 100 0
409 101 0
-409 -100 -101 0
410 100 0
410 102 0
-410 -100 -102 0
411 100 0
411 103 0
-411 -100 -103 0
412 100 0
412 104 0
-412 -100 -104 0
413 101 0
413 102 0
-413 -101 -102 0
414 101 0
414 103 0
-414 -101 -103 0
415 101 0
415 104 0
-415 -101 -104 0
416 102 0
416 103 0
-416 -102 -103 0
417 102 0
417 104 0
-417 -102 -104 0
418 103 0
418 104 0
-418 -103 -104 0
-419 122 0
-419 123 0
-419 124 0
-419 125 0
-419 126 0
-419 127 0
-419 128 0
-419 129 0
-419 130 0
-419 131 0
-419 132 0
-419 133 0
-419 134 0
-419 135 0
-419 136 0
-419 137 0
-419 138 0
-419 139 0
-419 140 0
-419 141 0
-419 142 0
-419 143 0
-419 144 0
-419 145 0
-419 146 0
-419 147 0
-419 148 0
-419 149 0
-419 150 0
-419 151 0
-419 152 0
-419 153 0
-419 154 0
-419 155 0
-419 156 0
-419 157 0
-419 158 0
-419 159 0
-419 160 0
-419 161 0
-419 162 0
-419 163 0
-419 164 0
-419 165 0
-419 166 0
-419 167 0
-419 168 0
-419 169 0
-419 170 0
-419 171 0
-419 172 0
-419 173 0
-419 174 0
-419 175 0
-419 176 0
-419 177 0
-419 178 0
-419 179 0
-419 180 0
-419 181 0
-419 182 0
-419 183 0
-419 184 0
-419 185 0
-419 186 0
-419 187 0
-419 188 0
-419 189 0
-419 190 0
-419 191 0
-419 192 0
-419 193 0
-419 194 0
-419 195 0
-419 196 0
-419 197 0
-419 198 0
-419 199 0
-419 200 0
-419 201 0
-419 202 0
-419 203 0
-419 204 0
-419 205 0
-419 206 0
-419 207 0
-419 208 0
-419 209 0
-419 210 0
-419 211 0
-419 212 0
-419 213 0
-419 214 0
-419 215 0
-419 216 0
-419 217 0
-419 218 0
-419 219 0
-419 220 0
-419 221 0
-419 222 0
-419 223 0
-419 224 0
-419 225 0
-419 226 0
-419 227 0
-419 228 0
-419 229 0
-419 230 0
-419 231 0
-419 232 0
-419 233 0
-419 234 0
-419 235 0
-419 236 0
-419 237 0
-419 238 0
-419 239 0
-419 240 0
-419 241 0
-419 242 0
-419 243 0
-419 244 0
-419 245 0
-419 246 0
-419 247 0
-419 248 0
-419 249 0
-419 250 0
-419 251 0
-419 252 0
-419 253 0
-419 254 0
-419 255 0
-419 256 0
-419 257 0
-419 258 0
-419 259 0
-419 260 0
-419 261 0
-419 262 0
-419 263 0
-419 264 0
-419 265 0
-419 266 0
-419 267 0
-419 268 0
-419 269 0
-419 270 0
-419 271 0
-419 272 0
-419 273 0
-419 274 0
-419 275 0
-419 276 0
-419 277 0
-419 278 0
-419 279 0
-419 280 0
-419 281 0
-419 282 0
-419 283 0
-419 284 0
-419 285 0
-419 286 0
-419 287 0
-419 288 0
-419 289 0
-419 290 0
-419 291 0
-419 292 0
-419 293 0
-419 294 0
-419 295 0
-419 296 0
-419 297 0
-419 298 0
-419 299 0
-419 300 0
-419 301 0
-419 302 0
-419 303 0
-419 304 0
-419 305 0
-419 306 0
-419 307 0
-419 308 0
-419 309 0
-419 310 0
-419 311 0
-419 312 0
-419 313 0
-419 314 0
-419 315 0
-419 316 0
-419 317 0
-419 318 0
-419 319 0
-419 320 0
-419 321 0
-419 322 0
-419 323 0
-419 324 0
-419 325 0
-419 326 0
-419 327 0
-419 328 0
-419 329 0
-419 330 0
-419 331 0
-419 332 0
-419 333 0
-419 334 0
-419 335 0
-419 336 0
-419 337 0
-419 338 0
-419 339 0
-419 340 0
-419 341 0
-419 342 0
-419 343 0
-419 344 0
-419 345 0
-419 346 0
-419 347 0
-419 348 0
-419 349 0
-419 350 0
-419 351 0
-419 352 0
-419 353 0
-419 354 0
-419 355 0
-419 356 0
-419 357 0
-419 358 0
-419 359 0
-419 360 0
-419 361 0
-419 362 0
-419 363 0
-419 364 0
-419 365 0
-419 366 0
-419 367 0
-419 368 0
-419 369 0
-419 370 0
-419 371 0
-419 372 0
-419 373 0
-419 374 0
-419 375 0
-419 376 0
-419 377 0
-419 378 0
-419 379 0
-419 380 0
-419 381 0
-419 382 0
-419 383 0
-419 384 0
-419 385 0
-419 386 0
-419 387 0
-419 388 0
-419 389 0
-419 390 0
-419 391 0
-419 392 0
-419 393 0
-419 394 0
-419 395 0
-419 396 0
-419 397 0
-419 398 0
-419 399 0
-419 400 0
-419 401 0
-419 402 0
-419 403 0
-419 404 0
-419 405 0
-419 406 0
-419 407 0
-419 408 0
-419 409 0
-419 410 0
-419 411 0
-419 412 0
-419 413 0
-419 414 0
-419 415 0
-419 416 0
-419 417 0
-419 418 0
419 -122 -123 -124 -125 -126 -127 -128 -129 -130 -131 -132 -133 -134 -135 -136 -137 -138 -139 -140 -141 -142 -143 -144 -145 -146 -147 -148 -149 -150 -151 -152 -153 -154 -155 -156 -157 -158 -159 -160 -161 -162 -163 -164 -165 -166 -167 -168 -169 -170 -171 -172 -173 -174 -175 -176 -177 -178 -179 -180 -181 -182 -183 -184 -185 -186 -187 -188 -189 -190 -191 -192 -193 -194 -195 -196 -197 -198 -199 -200 -201 -202 -203 -204 -205 -206 -207 -208 -209 -210 -211 -212 -213 -214 -215 -216 -217 -218 -219 -220 -221 -222 -223 -224 -225 -226 -227 -228 -229 -230 -231 -232 -233 -234 -235 -236 -237 -238 -239 -240 -241 -242 -243 -244 -245 -246 -247 -248 -249 -250 -251 -252 -253 -254 -255 -256 -257 -258 -259 -260 -261 -262 -263 -264 -265 -266 -267 -268 -269 -270 -271 -272 -273 -274 -275 -276 -277 -278 -279 -280 -281 -282 -283 -284 -285 -286 -287 -288 -289 -290 -291 -292 -293 -294 -295 -296 -297 -298 -299 -300 -301 -302 -303 -304 -305 -306 -307 -308 -309 -310 -311 -312 -313 -314 -315 -316 -317 -318 -319 -320 -321 -322 -323 -324 -325 -326 -327 -328 -329 -330 -331 -332 -333 -334 -335 -336 -337 -338 -339 -340 -341 -342 -343 -344 -345 -346 -347 -348 -349 -350 -351 -352 -353 -354 -355 -356 -357 -358 -359 -360 -361 -362 -363 -364 -365 -366 -367 -368 -369 -370 -371 -372 -373 -374 -375 -376 -377 -378 -379 -380 -381 -382 -383 -384 -385 -386 -387 -388 -389 -390 -391 -392 -393 -394 -395 -396 -397 -398 -399 -400 -401 -402 -403 -404 -405 -406 -407 -408 -409 -410 -411 -412 -413 -414 -415 -416 -417 -418 0
-419 0
